(set-logic HORN)
(declare-datatypes ((Nat_1 0)) (((Z_4 ) (Z_5 (unS_0 Nat_1)))))
(declare-datatypes ((Bool_0 0)) (((false_0 ) (true_0 ))))
(declare-fun diseqBool_0 (Bool_0 Bool_0) Bool)
(declare-datatypes ((list_0 0)) (((nil_0 ) (cons_0 (head_0 Nat_1) (tail_0 list_0)))))
(declare-datatypes ((Nat_0 0)) (((Z_0 ) (S_0 (projS_0 Nat_0)))))
(declare-fun length_0 (Nat_0 list_0) Bool)
(declare-fun even_0 (Bool_0 Nat_0) Bool)
(declare-fun x_2 (Nat_0 Nat_0 Nat_0) Bool)
(declare-fun x_4 (list_0 list_0 list_0) Bool)
(assert (diseqBool_0 false_0 true_0))
(assert (diseqBool_0 true_0 false_0))
(assert (forall ((x_8 Nat_0) (y_0 Nat_1) (xs_0 list_0))
	(=> (length_0 x_8 xs_0) (length_0 (S_0 x_8) (cons_0 y_0 xs_0)))))
(assert (length_0 Z_0 nil_0))
(assert (forall ((x_10 Bool_0) (z_1 Nat_0))
	(=> (even_0 x_10 z_1) (even_0 x_10 (S_0 (S_0 z_1))))))
(assert (even_0 false_0 (S_0 Z_0)))
(assert (even_0 true_0 Z_0))
(assert (forall ((x_15 Nat_0) (z_2 Nat_0) (y_2 Nat_0))
	(=> (x_2 x_15 z_2 y_2) (x_2 (S_0 x_15) (S_0 z_2) y_2))))
(assert (forall ((x_16 Nat_0))
	(x_2 x_16 Z_0 x_16)))
(assert (forall ((x_18 list_0) (z_3 Nat_1) (xs_1 list_0) (y_3 list_0))
	(=> (x_4 x_18 xs_1 y_3) (x_4 (cons_0 z_3 x_18) (cons_0 z_3 xs_1) y_3))))
(assert (forall ((x_19 list_0))
	(x_4 x_19 nil_0 x_19)))
(assert (forall ((x_20 list_0) (x_21 Nat_0) (x_22 Bool_0) (x_23 Nat_0) (x_24 Nat_0) (x_25 Nat_0) (x_26 Bool_0) (x_6 list_0) (y_4 list_0))
	(=> (and (diseqBool_0 x_22 x_26) (x_4 x_20 x_6 y_4) (length_0 x_21 x_20) (even_0 x_22 x_21) (length_0 x_23 y_4) (length_0 x_24 x_6) (x_2 x_25 x_23 x_24) (even_0 x_26 x_25)) false)))
(check-sat)
(get-model)
